5
-1 1 -1 -1 -1
-1 -1 -1 -1 -1
-1 -1 -1 1 -1
-1 1 -1 -1 -1
-1 -1 1 -1 -1
10
-1 62 47 35 45 46 67 56 58 42
93 -1 6 67 93 41 12 51 28 47
52 26 -1 20 77 80 47 66 70 25
32 34 93 -1 65 3 97 35 59 51
15 24 27 52 -1 79 99 32 96 19
19 47 76 60 36 -1 2 37 43 61
22 16 22 16 49 39 -1 5 48 74
69 45 86 58 99 23 96 -1 19 6
19 98 9 79 59 58 9 68 -1 2
62 4 0 13 76 28 60 91 81 -1